Data path: /scratch/opt/lxu/CFLG/benchmarks/Kgroup_A
Instance: K100.6.red
Result path: /scratch/opt/lxu/CFLG/results/Kgroup_A
Solver: Gurobi
Time limit: 7200
Formulation: LEFPD
Cover: Small
julia --project=. src/main.jl /scratch/opt/lxu/CFLG/benchmarks/Kgroup_A K100.6.red /scratch/opt/lxu/CFLG/results/Kgroup_A Gurobi 7200 LEFPD Small
The latest version of Julia in the `release` channel is 1.11.5+0.x64.linux.gnu. You currently have `1.11.4+0.x64.linux.gnu` installed. Run:

  juliaup update

in your terminal shell to install Julia 1.11.5+0.x64.linux.gnu and update the `release` channel to that version.
/scratch/opt/lxu/CFLG/benchmarks/Kgroup_A Gurobi 7200.0 /scratch/opt/lxu/CFLG/results/Kgroup_A K100.6.red LEFPD Small
/scratch/opt/lxu/CFLG/benchmarks/Kgroup_A/K100.6.red

 read graph
data loaded


after absorb:22 22

max_piece:12
problem_graph/original graph: node: 28/22 edge: 70/64 dlt: 0.08806199650142943 break_avg_len: 0.3220553014909418 break_max_len: 1.0Set parameter TokenServer to value "solice01.zib.de"
Set parameter Threads to value 1
Set parameter OutputFlag to value 1
Gurobi Optimizer version 12.0.1 build v12.0.1rc0 (linux64 - "Debian GNU/Linux 12 (bookworm)")

CPU model: Intel(R) Xeon(R) Gold 5222 CPU @ 3.80GHz, instruction set [SSE2|AVX|AVX2|AVX512]
Thread count: 8 physical cores, 16 logical processors, using up to 1 threads

Non-default parameters:
Threads  1

Optimize a model with 98 rows, 210 columns and 350 nonzeros
Model fingerprint: 0xfeb242bc
Coefficient statistics:
  Matrix range     [1e+00, 1e+00]
  Objective range  [1e+00, 1e+00]
  Bounds range     [1e+00, 1e+00]
  RHS range        [0e+00, 0e+00]
Presolve removed 98 rows and 210 columns
Presolve time: 0.00s
Presolve: All rows and columns removed
Iteration    Objective       Primal Inf.    Dual Inf.      Time
       0   -0.0000000e+00   0.000000e+00   0.000000e+00      0s

Solved in 0 iterations and 0.00 seconds (0.00 work units)
Optimal objective -0.000000000e+00

User-callback calls 36, time in user-callback 0.00 sec
elapsed CPU time: 0.944008 seconds
Set parameter TokenServer to value "solice01.zib.de"
Set parameter Threads to value 1
Set parameter OutputFlag to value 1
Set parameter MIPGap to value 0.0001
Set parameter MIPGapAbs to value 1
Set parameter TimeLimit to value 7199.055992

 more cuts:falsefalse
0 0
formulation:LEFPD54 16 6

 model loaded

Gurobi Optimizer version 12.0.1 build v12.0.1rc0 (linux64 - "Debian GNU/Linux 12 (bookworm)")

CPU model: Intel(R) Xeon(R) Gold 5222 CPU @ 3.80GHz, instruction set [SSE2|AVX|AVX2|AVX512]
Thread count: 8 physical cores, 16 logical processors, using up to 1 threads

Non-default parameters:
TimeLimit  7199.055992
MIPGapAbs  1
Threads  1

Optimize a model with 1554 rows, 1040 columns and 3811 nonzeros
Model fingerprint: 0x48ff03f1
Variable types: 482 continuous, 558 integer (558 binary)
Coefficient statistics:
  Matrix range     [9e-08, 1e+00]
  Objective range  [1e+00, 1e+00]
  Bounds range     [3e-04, 1e+00]
  RHS range        [3e-04, 1e+00]
Presolve removed 817 rows and 234 columns
Presolve time: 0.02s
Presolved: 737 rows, 806 columns, 2977 nonzeros
Variable types: 433 continuous, 373 integer (373 binary)
Found heuristic solution: objective 161.0000000
Found heuristic solution: objective 159.0000000

Root relaxation: objective 9.870061e+01, 671 iterations, 0.01 seconds (0.01 work units)

    Nodes    |    Current Node    |     Objective Bounds      |     Work
 Expl Unexpl |  Obj  Depth IntInf | Incumbent    BestBd   Gap | It/Node Time

     0     0   98.70061    0   83  159.00000   98.70061  37.9%     -    0s
H    0     0                     158.0000000   98.70061  37.5%     -    0s
H    0     0                     157.0000000   98.70061  37.1%     -    0s
H    0     0                     155.0000000   98.70061  36.3%     -    0s
     0     0  102.14510    0  138  155.00000  102.14510  34.1%     -    0s
     0     0  102.23892    0  144  155.00000  102.23892  34.0%     -    0s
     0     0  102.23918    0  145  155.00000  102.23918  34.0%     -    0s
     0     0  103.49983    0  131  155.00000  103.49983  33.2%     -    0s
H    0     0                     116.0000000  103.57574  10.7%     -    0s
     0     0  103.57574    0  139  116.00000  103.57574  10.7%     -    0s
     0     0  103.57854    0  139  116.00000  103.57854  10.7%     -    0s
     0     0  104.60854    0  153  116.00000  104.60854  9.82%     -    0s
H    0     0                     114.0000000  104.61434  8.23%     -    0s
     0     0  104.74416    0  165  114.00000  104.74416  8.12%     -    0s
     0     0  104.75830    0  163  114.00000  104.75830  8.11%     -    0s
     0     0  104.76547    0  163  114.00000  104.76547  8.10%     -    0s
     0     0  105.28966    0  162  114.00000  105.28966  7.64%     -    0s
     0     0  105.39869    0  141  114.00000  105.39869  7.55%     -    0s
     0     0  105.41140    0  148  114.00000  105.41140  7.53%     -    0s
     0     0  105.42121    0  155  114.00000  105.42121  7.53%     -    0s
     0     0  105.42222    0  157  114.00000  105.42222  7.52%     -    0s
     0     0  105.54929    0  153  114.00000  105.54929  7.41%     -    0s
     0     0  105.60472    0  166  114.00000  105.60472  7.36%     -    0s
     0     0  105.61119    0  172  114.00000  105.61119  7.36%     -    0s
     0     0  105.61181    0  173  114.00000  105.61181  7.36%     -    0s
     0     0  105.69880    0  161  114.00000  105.69880  7.28%     -    0s
     0     0  105.70570    0  166  114.00000  105.70570  7.28%     -    0s
     0     0  105.70741    0  164  114.00000  105.70741  7.27%     -    0s
     0     0  105.73217    0  171  114.00000  105.73217  7.25%     -    0s
     0     0  105.75342    0  163  114.00000  105.75342  7.23%     -    0s
H    0     0                     113.0000000  105.78343  6.39%     -    0s
H    0     0                     112.0000000  105.78343  5.55%     -    0s
     0     2  105.78343    0  162  112.00000  105.78343  5.55%     -    0s
   800   573  110.14437   30   78  112.00000  107.37530  4.13%  50.9    5s
  1830   938     cutoff   29       112.00000  107.99931  3.57%  62.2   10s
  3060  1478  108.42675   18  158  112.00000  108.24177  3.36%  62.0   15s
  4401  2223     cutoff   37       112.00000  108.38283  3.23%  60.8   20s
  5738  2947  109.72242   25   97  112.00000  108.51330  3.11%  60.5   26s
  6687  3430  109.46156   25  124  112.00000  108.58338  3.05%  60.2   30s
  8168  4133  109.36517   20  134  112.00000  108.64798  2.99%  59.9   35s
  9544  4835  109.91827   24   97  112.00000  108.72041  2.93%  60.6   40s
 10203  5173  110.46042   38  163  112.00000  108.74209  2.91%  60.5   50s
 10277  5222  109.44388   21  193  112.00000  108.74209  2.91%  60.1   55s
 10553  5312  109.03295   29  134  112.00000  108.74209  2.91%  61.9   60s
 11234  5486  110.96789   36   91  112.00000  108.89797  2.77%  63.1   65s
 12135  5642  109.89065   35  119  112.00000  109.07541  2.61%  63.6   70s
 13245  5763  109.68286   33  133  112.00000  109.25533  2.45%  64.6   75s
 14185  5828  110.69144   36   80  112.00000  109.34743  2.37%  65.3   80s
 15345  5829  109.93203   33  144  112.00000  109.46288  2.27%  66.4   85s
 16498  5870  110.22228   32  126  112.00000  109.53899  2.20%  67.2   90s
 17696  5823  110.90542   39   73  112.00000  109.60951  2.13%  68.1   95s
 18843  5751  110.22972   36  115  112.00000  109.66818  2.08%  68.9  100s
 20058  5703  110.35171   39  100  112.00000  109.72314  2.03%  69.5  105s
 21417  5567  110.40716   40  108  112.00000  109.78246  1.98%  69.9  110s
 22780  5422     cutoff   40       112.00000  109.83612  1.93%  70.1  115s
 24130  5243  110.42087   41   90  112.00000  109.87954  1.89%  70.4  120s
 25523  5027  110.83376   39   86  112.00000  109.91495  1.86%  70.6  125s
 26838  5091     cutoff   41       112.00000  109.94669  1.83%  70.9  130s
 28145  5276  110.53107   40  104  112.00000  109.97728  1.81%  71.3  135s
 29422  5476  110.68697   35  136  112.00000  110.00501  1.78%  71.7  140s
 30754  5672  110.69025   36  100  112.00000  110.03719  1.75%  71.9  145s
 31993  5842  110.37644   34  137  112.00000  110.06227  1.73%  72.0  150s
 33316  5999  110.85477   36  100  112.00000  110.09380  1.70%  72.2  155s
 34699  6144     cutoff   42       112.00000  110.12048  1.68%  72.4  160s
 36038  6267  110.93984   39   82  112.00000  110.14791  1.65%  72.6  165s
 37379  6399     cutoff   34       112.00000  110.17247  1.63%  72.7  170s
 38758  6518  110.75761   39   95  112.00000  110.19481  1.61%  72.8  175s
 40074  6590     cutoff   44       112.00000  110.21656  1.59%  73.0  180s
 41457  6678 infeasible   35       112.00000  110.23770  1.57%  73.1  185s
 42789  6748     cutoff   33       112.00000  110.25968  1.55%  73.1  190s
 44076  6815     cutoff   40       112.00000  110.28025  1.54%  73.2  195s
 45417  6868  110.69219   32  138  112.00000  110.29632  1.52%  73.3  200s
 46824  6874  110.70290   37  111  112.00000  110.31547  1.50%  73.2  205s
 48099  6891     cutoff   38       112.00000  110.33262  1.49%  73.3  210s
 49537  6890     cutoff   40       112.00000  110.35198  1.47%  73.2  215s
 50761  6880  110.78361   35   82  112.00000  110.36905  1.46%  73.4  220s
 51995  6819  110.88975   38  108  112.00000  110.38669  1.44%  73.5  225s
 53128  6728  110.97637   36   70  112.00000  110.40407  1.42%  73.8  230s
 54398  6640  110.78437   36   92  112.00000  110.42614  1.41%  73.9  235s
 55623  6603  110.87446   38  116  112.00000  110.43930  1.39%  74.0  240s
 56974  6509  110.65604   34  123  112.00000  110.45656  1.38%  74.0  245s
 58202  6422  110.76282   38  104  112.00000  110.47341  1.36%  74.1  250s
 59543  6310  110.92925   40   69  112.00000  110.49191  1.35%  74.1  255s
 60131  6248  110.75265   38   90  112.00000  110.49975  1.34%  74.2  260s
 61396  6100     cutoff   40       112.00000  110.51718  1.32%  74.2  265s
 62777  5940  110.91159   43   71  112.00000  110.53497  1.31%  74.2  270s
 64025  5736  110.66634   39  116  112.00000  110.55172  1.29%  74.3  275s
 65316  5531  110.67234   33  110  112.00000  110.56875  1.28%  74.4  280s
 66504  5288     cutoff   38       112.00000  110.58710  1.26%  74.5  285s
 67781  5020  110.93930   40  109  112.00000  110.60645  1.24%  74.6  290s
 69119  4755     cutoff   35       112.00000  110.62578  1.23%  74.6  295s
 70519  4448     cutoff   40       112.00000  110.64482  1.21%  74.5  300s
 71860  4054     cutoff   44       112.00000  110.67000  1.19%  74.5  305s
 73117  3620     cutoff   41       112.00000  110.69442  1.17%  74.6  310s
 74466  3166  110.85866   42   88  112.00000  110.71815  1.14%  74.6  315s
 75802  2610     cutoff   37       112.00000  110.74909  1.12%  74.6  320s
 77145  1957     cutoff   39       112.00000  110.78580  1.08%  74.6  325s
 78665  1072     cutoff   39       112.00000  110.84228  1.03%  74.5  330s

Cutting planes:
  Gomory: 21
  Cover: 97
  Implied bound: 77
  Clique: 6
  MIR: 351
  Mixing: 4
  Flow cover: 384
  GUB cover: 15
  Zero half: 1
  RLT: 27
  Relax-and-lift: 13
  BQP: 2

Explored 80078 nodes (5923658 simplex iterations) in 333.25 seconds (330.20 work units)
Thread count was 1 (of 16 available processors)

Solution count 10: 112 112 113 ... 161

Optimal solution found (tolerance 1.00e-04)
Best objective 1.120000000000e+02, best bound 1.120000000000e+02, gap 0.0000%

User-callback calls 260895, time in user-callback 0.16 sec

 sepatime0
112.0Stat(MathOptInterface.OPTIMAL, 112.0, 112.0, 0.0, 0.0, 0.944008, 333.25446605682373, 80078, Main.CFLG.LEFPD, "", #undef)
